NAME          ClpDefau
ROWS
 N  OBJROW
 L  R_196_0
 L  R_196_1
 L  R_196_2
 L  R_196_3
 L  R_196_4
 L  R_196_5
 L  R_196_6
 L  R_196_7
 L  R_196_8
 L  R_196_9
 L  R_196_10
 L  R_196_11
 L  R_196_12
 L  R_196_13
 L  R_196_14
 L  R_196_15
COLUMNS
    x_0       OBJROW     -1.           R_196_1   42.         
    x_0       R_196_2   66.            R_196_6   58.         
    x_0       R_196_15  97.         
    x_1       OBJROW     -2.        
    x_2       OBJROW     -2.        
    x_3       OBJROW     -6.           R_196_5   25.         
    x_3       R_196_7   74.            R_196_12  67.         
    x_3       R_196_13  35.         
    x_4       OBJROW     -3.           R_196_3   47.         
    x_4       R_196_6   15.            R_196_8   94.         
    x_4       R_196_11  21.            R_196_14  76.         
    x_4       R_196_15  32.         
    x_5       OBJROW     -5.           R_196_0   5.          
    x_5       R_196_1   79.            R_196_9   34.         
    x_6       OBJROW     -5.           R_196_1   58.         
    x_7       OBJROW     -10.          R_196_1   22.         
    x_7       R_196_2   82.            R_196_6   32.         
    x_8       OBJROW     -4.           R_196_1   5.          
    x_8       R_196_3   66.            R_196_6   24.         
    x_8       R_196_8   4.          
    x_9       OBJROW     -10.          R_196_4   54.         
    x_9       R_196_10  16.            R_196_15  88.         
    x_10      OBJROW     -1.           R_196_1   26.         
    x_10      R_196_4   58.            R_196_5   82.         
    x_10      R_196_9   37.            R_196_10  40.         
    x_10      R_196_12  97.            R_196_14  48.         
    x_11      OBJROW     -10.          R_196_3   16.         
    x_11      R_196_4   79.            R_196_9   85.         
    x_11      R_196_11  91.         
    x_12      OBJROW     -3.        
    x_13      OBJROW     -7.           R_196_0   46.         
    x_13      R_196_1   70.            R_196_2   54.         
    x_13      R_196_8   38.            R_196_13  37.         
    x_13      R_196_14  70.         
    x_14      OBJROW     -7.           R_196_5   21.         
    x_14      R_196_12  57.         
    x_15      OBJROW     -9.           R_196_2   36.         
    x_16      OBJROW     -6.           R_196_4   60.         
    x_16      R_196_8   13.            R_196_9   28.         
    x_16      R_196_14  72.         
    x_17      OBJROW     -9.           R_196_0   96.         
    x_17      R_196_5   87.            R_196_12  1.          
    x_18      OBJROW     -8.           R_196_0   76.         
    x_18      R_196_6   11.         
    x_19      OBJROW     -9.           R_196_0   64.         
    x_19      R_196_4   72.            R_196_6   5.          
    x_20      OBJROW     -5.           R_196_0   41.         
    x_20      R_196_7   82.            R_196_11  65.         
    x_21      OBJROW     -1.           R_196_3   49.         
    x_21      R_196_12  92.         
    x_22      OBJROW     -1.           R_196_1   31.         
    x_22      R_196_5   18.         
    x_23      OBJROW     -6.           R_196_13  46.         
    x_23      R_196_15  24.         
    x_24      OBJROW     -8.           R_196_3   22.         
    x_24      R_196_15  41.         
    x_25      OBJROW     -6.           R_196_5   47.         
    x_25      R_196_14  19.            R_196_15  9.          
    x_26      OBJROW     -7.           R_196_2   67.         
    x_26      R_196_4   83.         
    x_27      OBJROW     -7.           R_196_7   14.         
    x_27      R_196_10  88.            R_196_12  51.         
    x_27      R_196_15  14.         
    x_28      OBJROW     -9.           R_196_2   55.         
    x_28      R_196_4   84.            R_196_8   18.         
    x_28      R_196_10  65.            R_196_12  70.         
    x_29      OBJROW     -3.           R_196_2   63.         
    x_29      R_196_3   70.            R_196_4   14.         
    x_30      OBJROW     -9.           R_196_2   27.         
    x_30      R_196_3   26.         
    x_31      OBJROW     -3.           R_196_3   71.         
    x_31      R_196_7   18.            R_196_12  99.         
    x_31      R_196_15  41.         
RHS
    RHS       R_196_0   324.           R_196_1   408.        
    RHS       R_196_2   345.           R_196_3   333.        
    RHS       R_196_4   337.           R_196_5   401.        
    RHS       R_196_6   408.           R_196_7   389.        
    RHS       R_196_8   343.           R_196_9   417.        
    RHS       R_196_10  331.           R_196_11  407.        
    RHS       R_196_12  379.           R_196_13  400.        
    RHS       R_196_14  357.           R_196_15  346.        
BOUNDS
 UI BOUND     x_0       10.         
 UI BOUND     x_1       10.         
 UI BOUND     x_2       10.         
 UI BOUND     x_3       10.         
 UI BOUND     x_4       10.         
 UI BOUND     x_5       10.         
 UI BOUND     x_6       10.         
 UI BOUND     x_7       10.         
 UI BOUND     x_8       10.         
 UI BOUND     x_9       10.         
 UI BOUND     x_10      10.         
 UI BOUND     x_11      10.         
 UI BOUND     x_12      10.         
 UI BOUND     x_13      10.         
 UI BOUND     x_14      10.         
 UI BOUND     x_15      10.         
 UI BOUND     x_16      10.         
 UI BOUND     x_17      10.         
 UI BOUND     x_18      10.         
 UI BOUND     x_19      10.         
 UI BOUND     x_20      10.         
 UI BOUND     x_21      10.         
 UI BOUND     x_22      10.         
 UI BOUND     x_23      10.         
 UI BOUND     x_24      10.         
 UI BOUND     x_25      10.         
 UI BOUND     x_26      10.         
 UI BOUND     x_27      10.         
 UI BOUND     x_28      10.         
 UI BOUND     x_29      10.         
 UI BOUND     x_30      10.         
 UI BOUND     x_31      10.         
ENDATA
